c graph converted from Delauney Triangulation format
c weights on edges removed (lost)
x low 0.00
p edge 439 1297
n 0 1.00
n 1 1.00
n 2 1.00
n 51 1.00
n 3 1.00
n 82 1.00
n 83 1.00
n 84 1.00
n 48 1.00
n 45 1.00
n 4 1.00
n 5 1.00
n 6 1.00
n 7 1.00
n 12 1.00
n 44 1.00
n 42 1.00
n 40 1.00
n 8 1.00
n 39 1.00
n 10 1.00
n 9 1.00
n 11 1.00
n 36 1.00
n 35 1.00
n 13 1.00
n 14 1.00
n 32 1.00
n 34 1.00
n 16 1.00
n 15 1.00
n 31 1.00
n 29 1.00
n 27 1.00
n 24 1.00
n 22 1.00
n 20 1.00
n 19 1.00
n 17 1.00
n 94 1.00
n 93 1.00
n 92 1.00
n 18 1.00
n 95 1.00
n 96 1.00
n 132 1.00
n 67 1.00
n 66 1.00
n 21 1.00
n 23 1.00
n 65 1.00
n 64 1.00
n 63 1.00
n 25 1.00
n 62 1.00
n 26 1.00
n 28 1.00
n 30 1.00
n 72 1.00
n 61 1.00
n 58 1.00
n 33 1.00
n 59 1.00
n 57 1.00
n 56 1.00
n 37 1.00
n 78 1.00
n 79 1.00
n 38 1.00
n 80 1.00
n 41 1.00
n 81 1.00
n 43 1.00
n 55 1.00
n 46 1.00
n 54 1.00
n 47 1.00
n 53 1.00
n 49 1.00
n 52 1.00
n 50 1.00
n 188 1.00
n 187 1.00
n 186 1.00
n 77 1.00
n 76 1.00
n 75 1.00
n 60 1.00
n 74 1.00
n 108 1.00
n 73 1.00
n 71 1.00
n 70 1.00
n 68 1.00
n 90 1.00
n 69 1.00
n 91 1.00
n 89 1.00
n 88 1.00
n 87 1.00
n 109 1.00
n 86 1.00
n 85 1.00
n 148 1.00
n 185 1.00
n 226 1.00
n 438 1.00
n 291 1.00
n 292 1.00
n 106 1.00
n 107 1.00
n 105 1.00
n 104 1.00
n 103 1.00
n 101 1.00
n 102 1.00
n 114 1.00
n 116 1.00
n 119 1.00
n 100 1.00
n 99 1.00
n 97 1.00
n 98 1.00
n 127 1.00
n 130 1.00
n 131 1.00
n 124 1.00
n 122 1.00
n 121 1.00
n 113 1.00
n 112 1.00
n 143 1.00
n 145 1.00
n 111 1.00
n 110 1.00
n 147 1.00
n 184 1.00
n 223 1.00
n 278 1.00
n 146 1.00
n 141 1.00
n 142 1.00
n 115 1.00
n 117 1.00
n 118 1.00
n 140 1.00
n 139 1.00
n 120 1.00
n 138 1.00
n 137 1.00
n 136 1.00
n 123 1.00
n 125 1.00
n 126 1.00
n 135 1.00
n 134 1.00
n 128 1.00
n 129 1.00
n 133 1.00
n 162 1.00
n 163 1.00
n 164 1.00
n 166 1.00
n 167 1.00
n 161 1.00
n 159 1.00
n 157 1.00
n 155 1.00
n 154 1.00
n 152 1.00
n 151 1.00
n 149 1.00
n 150 1.00
n 144 1.00
n 183 1.00
n 181 1.00
n 153 1.00
n 182 1.00
n 180 1.00
n 178 1.00
n 156 1.00
n 158 1.00
n 176 1.00
n 160 1.00
n 172 1.00
n 174 1.00
n 165 1.00
n 169 1.00
n 168 1.00
n 170 1.00
n 207 1.00
n 208 1.00
n 252 1.00
n 253 1.00
n 171 1.00
n 205 1.00
n 206 1.00
n 173 1.00
n 203 1.00
n 204 1.00
n 175 1.00
n 199 1.00
n 200 1.00
n 201 1.00
n 177 1.00
n 196 1.00
n 198 1.00
n 179 1.00
n 195 1.00
n 194 1.00
n 193 1.00
n 192 1.00
n 191 1.00
n 190 1.00
n 189 1.00
n 225 1.00
n 224 1.00
n 229 1.00
n 280 1.00
n 281 1.00
n 231 1.00
n 289 1.00
n 290 1.00
n 222 1.00
n 221 1.00
n 220 1.00
n 219 1.00
n 218 1.00
n 217 1.00
n 215 1.00
n 197 1.00
n 216 1.00
n 214 1.00
n 213 1.00
n 212 1.00
n 211 1.00
n 202 1.00
n 210 1.00
n 209 1.00
n 249 1.00
n 250 1.00
n 247 1.00
n 246 1.00
n 245 1.00
n 244 1.00
n 243 1.00
n 241 1.00
n 242 1.00
n 240 1.00
n 239 1.00
n 238 1.00
n 237 1.00
n 235 1.00
n 236 1.00
n 234 1.00
n 232 1.00
n 233 1.00
n 272 1.00
n 273 1.00
n 274 1.00
n 275 1.00
n 276 1.00
n 277 1.00
n 230 1.00
n 227 1.00
n 228 1.00
n 282 1.00
n 342 1.00
n 283 1.00
n 341 1.00
n 340 1.00
n 339 1.00
n 284 1.00
n 279 1.00
n 285 1.00
n 287 1.00
n 288 1.00
n 271 1.00
n 270 1.00
n 269 1.00
n 268 1.00
n 267 1.00
n 266 1.00
n 265 1.00
n 264 1.00
n 263 1.00
n 262 1.00
n 261 1.00
n 260 1.00
n 259 1.00
n 258 1.00
n 257 1.00
n 256 1.00
n 248 1.00
n 255 1.00
n 251 1.00
n 254 1.00
n 316 1.00
n 315 1.00
n 401 1.00
n 403 1.00
n 404 1.00
n 416 1.00
n 417 1.00
n 427 1.00
n 428 1.00
n 430 1.00
n 314 1.00
n 313 1.00
n 312 1.00
n 311 1.00
n 309 1.00
n 308 1.00
n 306 1.00
n 307 1.00
n 305 1.00
n 304 1.00
n 301 1.00
n 300 1.00
n 298 1.00
n 299 1.00
n 297 1.00
n 296 1.00
n 295 1.00
n 294 1.00
n 293 1.00
n 434 1.00
n 343 1.00
n 286 1.00
n 344 1.00
n 346 1.00
n 348 1.00
n 351 1.00
n 353 1.00
n 356 1.00
n 358 1.00
n 338 1.00
n 337 1.00
n 336 1.00
n 335 1.00
n 334 1.00
n 333 1.00
n 332 1.00
n 331 1.00
n 302 1.00
n 303 1.00
n 329 1.00
n 328 1.00
n 327 1.00
n 326 1.00
n 325 1.00
n 324 1.00
n 323 1.00
n 321 1.00
n 310 1.00
n 322 1.00
n 320 1.00
n 319 1.00
n 317 1.00
n 318 1.00
n 387 1.00
n 366 1.00
n 386 1.00
n 330 1.00
n 365 1.00
n 364 1.00
n 363 1.00
n 362 1.00
n 361 1.00
n 360 1.00
n 359 1.00
n 369 1.00
n 375 1.00
n 374 1.00
n 373 1.00
n 372 1.00
n 370 1.00
n 382 1.00
n 402 1.00
n 345 1.00
n 376 1.00
n 347 1.00
n 349 1.00
n 350 1.00
n 352 1.00
n 354 1.00
n 355 1.00
n 378 1.00
n 357 1.00
n 388 1.00
n 368 1.00
n 367 1.00
n 377 1.00
n 384 1.00
n 371 1.00
n 381 1.00
n 380 1.00
n 379 1.00
n 389 1.00
n 390 1.00
n 383 1.00
n 393 1.00
n 394 1.00
n 385 1.00
n 414 1.00
n 400 1.00
n 399 1.00
n 413 1.00
n 418 1.00
n 405 1.00
n 398 1.00
n 391 1.00
n 392 1.00
n 397 1.00
n 396 1.00
n 395 1.00
n 412 1.00
n 406 1.00
n 415 1.00
n 410 1.00
n 407 1.00
n 433 1.00
n 431 1.00
n 432 1.00
n 421 1.00
n 420 1.00
n 422 1.00
n 411 1.00
n 408 1.00
n 409 1.00
n 425 1.00
n 424 1.00
n 419 1.00
n 429 1.00
n 426 1.00
n 423 1.00
n 436 1.00
n 437 1.00
n 435 1.00
e 0 1
e 0 2
e 0 51
e 0 3
e 0 82
e 0 83
e 0 84
e 1 48
e 1 51
e 1 45
e 1 4
e 1 2
e 2 4
e 2 3
e 3 4
e 3 5
e 3 6
e 3 7
e 3 12
e 4 44
e 4 45
e 4 5
e 5 44
e 5 42
e 5 6
e 6 42
e 6 7
e 7 42
e 7 40
e 7 8
e 7 12
e 8 39
e 8 10
e 8 9
e 8 40
e 8 12
e 9 11
e 9 10
e 9 12
e 10 11
e 10 39
e 11 39
e 11 36
e 11 35
e 11 13
e 11 12
e 12 13
e 13 35
e 13 14
e 14 32
e 14 34
e 14 16
e 14 35
e 14 15
e 15 16
e 15 31
e 15 29
e 15 27
e 15 24
e 15 22
e 15 20
e 15 19
e 16 32
e 16 31
e 17 94
e 17 93
e 17 92
e 17 18
e 17 95
e 17 96
e 17 19
e 17 132
e 18 92
e 18 67
e 18 66
e 18 19
e 19 66
e 19 20
e 20 22
e 20 21
e 20 66
e 21 23
e 21 65
e 21 66
e 21 22
e 22 23
e 22 24
e 23 64
e 23 65
e 23 24
e 24 64
e 24 63
e 24 25
e 24 27
e 25 62
e 25 63
e 25 26
e 25 27
e 26 62
e 26 28
e 26 27
e 27 28
e 27 29
e 28 62
e 28 30
e 28 29
e 29 30
e 29 31
e 30 72
e 30 62
e 30 61
e 30 31
e 31 61
e 31 32
e 32 58
e 32 33
e 32 59
e 32 61
e 32 34
e 33 34
e 33 57
e 33 58
e 34 35
e 34 57
e 35 57
e 35 56
e 35 36
e 36 37
e 36 56
e 36 39
e 37 56
e 37 78
e 37 79
e 37 38
e 37 39
e 38 80
e 38 79
e 38 41
e 38 40
e 38 39
e 39 40
e 40 41
e 40 42
e 41 81
e 41 80
e 41 43
e 41 42
e 42 43
e 42 44
e 43 81
e 43 55
e 43 46
e 43 44
e 43 48
e 43 45
e 44 45
e 45 48
e 46 54
e 46 55
e 46 47
e 46 48
e 47 53
e 47 54
e 47 49
e 47 48
e 48 49
e 48 51
e 49 52
e 49 53
e 49 50
e 49 51
e 50 52
e 50 51
e 50 82
e 51 82
e 52 53
e 52 81
e 52 188
e 52 187
e 52 186
e 52 82
e 53 81
e 53 54
e 54 81
e 54 55
e 55 81
e 56 77
e 56 78
e 56 57
e 57 77
e 57 58
e 58 59
e 58 76
e 58 77
e 59 76
e 59 75
e 59 60
e 59 61
e 60 75
e 60 74
e 60 61
e 61 74
e 61 72
e 62 63
e 62 72
e 63 108
e 63 73
e 63 72
e 63 71
e 63 64
e 64 70
e 64 71
e 64 65
e 65 70
e 65 67
e 65 66
e 66 67
e 67 70
e 67 68
e 67 92
e 68 90
e 68 69
e 68 91
e 68 70
e 68 92
e 69 89
e 69 90
e 69 70
e 70 89
e 70 88
e 70 71
e 71 88
e 71 87
e 71 108
e 72 73
e 72 74
e 73 108
e 73 109
e 73 74
e 74 75
e 74 86
e 74 109
e 75 86
e 75 76
e 76 85
e 76 86
e 76 77
e 77 85
e 77 78
e 78 188
e 78 85
e 78 79
e 79 188
e 79 80
e 80 188
e 80 81
e 81 188
e 82 83
e 82 148
e 82 186
e 83 84
e 83 148
e 84 185
e 84 148
e 84 226
e 84 438
e 85 291
e 85 292
e 85 86
e 85 188
e 86 109
e 86 292
e 87 88
e 87 106
e 87 107
e 87 108
e 88 106
e 88 105
e 88 89
e 89 105
e 89 104
e 89 90
e 90 104
e 90 103
e 90 101
e 90 91
e 91 102
e 91 101
e 91 114
e 91 116
e 91 92
e 92 116
e 92 93
e 93 116
e 93 119
e 93 100
e 93 99
e 93 94
e 94 97
e 94 99
e 94 95
e 95 97
e 95 96
e 96 98
e 96 97
e 96 127
e 96 130
e 96 131
e 96 132
e 97 98
e 97 100
e 97 99
e 98 127
e 98 124
e 98 122
e 98 100
e 99 100
e 100 122
e 100 121
e 100 119
e 101 103
e 101 102
e 102 114
e 102 113
e 102 103
e 103 113
e 103 112
e 103 104
e 104 105
e 104 112
e 105 106
e 105 112
e 106 143
e 106 112
e 106 107
e 107 145
e 107 143
e 107 108
e 108 145
e 108 111
e 108 110
e 108 109
e 109 110
e 109 147
e 109 184
e 109 223
e 109 278
e 109 292
e 110 147
e 110 111
e 111 146
e 111 147
e 111 145
e 112 141
e 112 142
e 112 115
e 112 113
e 112 143
e 113 115
e 113 114
e 114 117
e 114 115
e 114 116
e 115 117
e 115 141
e 116 117
e 116 118
e 116 119
e 117 141
e 117 140
e 117 118
e 118 140
e 118 139
e 118 120
e 118 119
e 119 120
e 119 121
e 120 139
e 120 138
e 120 121
e 121 138
e 121 137
e 121 136
e 121 123
e 121 122
e 122 124
e 122 123
e 123 125
e 123 136
e 123 124
e 124 125
e 124 126
e 124 127
e 125 136
e 125 135
e 125 126
e 126 135
e 126 134
e 126 128
e 126 127
e 127 129
e 127 128
e 127 130
e 128 134
e 128 133
e 128 129
e 129 133
e 129 162
e 129 163
e 129 130
e 130 163
e 130 131
e 131 163
e 131 164
e 131 132
e 132 164
e 132 166
e 132 167
e 133 134
e 133 161
e 133 162
e 134 159
e 134 161
e 134 135
e 135 159
e 135 136
e 136 159
e 136 157
e 136 137
e 137 138
e 137 157
e 138 157
e 138 155
e 138 139
e 139 140
e 139 155
e 140 154
e 140 155
e 140 141
e 141 154
e 141 152
e 141 151
e 141 142
e 142 149
e 142 150
e 142 151
e 142 143
e 143 146
e 143 144
e 143 145
e 143 149
e 144 147
e 144 184
e 144 146
e 144 149
e 145 146
e 146 147
e 147 184
e 148 186
e 148 185
e 149 152
e 149 183
e 149 150
e 149 184
e 150 152
e 150 151
e 151 152
e 152 181
e 152 153
e 152 182
e 152 183
e 152 154
e 153 154
e 153 181
e 154 181
e 154 180
e 154 178
e 154 156
e 154 155
e 155 156
e 155 157
e 156 158
e 156 178
e 156 157
e 157 158
e 157 159
e 158 178
e 158 176
e 158 160
e 158 159
e 159 160
e 159 161
e 160 172
e 160 174
e 160 176
e 160 161
e 161 172
e 161 165
e 161 162
e 162 165
e 162 163
e 163 165
e 163 164
e 164 166
e 164 165
e 165 169
e 165 168
e 165 172
e 165 166
e 166 168
e 166 167
e 167 170
e 167 207
e 167 169
e 167 168
e 167 208
e 167 252
e 167 253
e 168 169
e 169 170
e 169 171
e 169 172
e 170 205
e 170 206
e 170 171
e 170 207
e 171 173
e 171 205
e 171 172
e 172 173
e 172 203
e 172 174
e 173 205
e 173 204
e 173 203
e 174 175
e 174 203
e 174 176
e 175 199
e 175 200
e 175 201
e 175 203
e 175 176
e 176 199
e 176 177
e 176 178
e 177 196
e 177 198
e 177 179
e 177 199
e 177 178
e 178 179
e 178 180
e 179 196
e 179 195
e 179 194
e 179 180
e 180 194
e 180 181
e 181 194
e 181 182
e 182 193
e 182 192
e 182 191
e 182 194
e 182 183
e 183 191
e 183 190
e 183 189
e 183 184
e 184 223
e 184 189
e 185 226
e 185 225
e 185 186
e 186 224
e 186 229
e 186 187
e 186 280
e 186 281
e 186 225
e 187 188
e 187 224
e 188 224
e 188 231
e 188 289
e 188 290
e 188 291
e 189 223
e 189 222
e 189 190
e 190 192
e 190 221
e 190 222
e 190 191
e 191 192
e 192 193
e 192 220
e 192 221
e 193 220
e 193 219
e 193 194
e 194 219
e 194 218
e 194 195
e 195 218
e 195 217
e 195 196
e 196 215
e 196 197
e 196 216
e 196 217
e 196 198
e 197 215
e 197 198
e 198 215
e 198 214
e 198 213
e 198 199
e 199 213
e 199 200
e 200 213
e 200 212
e 200 201
e 201 212
e 201 211
e 201 202
e 201 203
e 202 211
e 202 210
e 202 204
e 202 203
e 203 204
e 204 210
e 204 209
e 204 249
e 204 205
e 205 249
e 205 206
e 206 208
e 206 207
e 206 250
e 206 249
e 207 208
e 208 250
e 208 252
e 209 249
e 209 247
e 209 246
e 209 210
e 210 245
e 210 246
e 210 211
e 211 244
e 211 245
e 211 212
e 212 244
e 212 213
e 213 244
e 213 243
e 213 214
e 214 241
e 214 242
e 214 243
e 214 216
e 214 215
e 215 216
e 216 217
e 216 240
e 216 241
e 217 239
e 217 240
e 217 218
e 218 239
e 218 238
e 218 219
e 219 238
e 219 237
e 219 220
e 220 235
e 220 236
e 220 237
e 220 234
e 220 221
e 221 232
e 221 233
e 221 234
e 221 222
e 222 272
e 222 232
e 222 223
e 223 272
e 223 273
e 223 274
e 223 275
e 223 276
e 223 277
e 223 278
e 224 229
e 224 230
e 224 231
e 225 227
e 225 228
e 225 226
e 225 281
e 226 227
e 226 282
e 226 438
e 227 228
e 227 282
e 228 342
e 228 283
e 228 282
e 228 341
e 228 281
e 229 340
e 229 280
e 229 339
e 229 284
e 229 230
e 230 231
e 230 279
e 230 284
e 231 279
e 231 285
e 231 287
e 231 288
e 231 289
e 232 233
e 232 271
e 232 272
e 233 271
e 233 270
e 233 234
e 234 270
e 234 269
e 234 235
e 235 269
e 235 268
e 235 236
e 236 268
e 236 267
e 236 237
e 237 267
e 237 266
e 237 238
e 238 266
e 238 265
e 238 239
e 239 265
e 239 264
e 239 240
e 240 264
e 240 263
e 240 262
e 240 241
e 241 242
e 241 262
e 242 262
e 242 261
e 242 243
e 243 261
e 243 260
e 243 244
e 244 260
e 244 259
e 244 245
e 245 246
e 245 258
e 245 259
e 246 258
e 246 257
e 246 247
e 247 257
e 247 256
e 247 248
e 247 249
e 248 256
e 248 255
e 248 251
e 248 250
e 248 249
e 249 250
e 250 252
e 250 251
e 251 255
e 251 254
e 251 252
e 252 254
e 252 253
e 253 316
e 253 315
e 253 254
e 253 401
e 253 403
e 253 404
e 253 416
e 253 417
e 253 427
e 253 428
e 253 430
e 254 315
e 254 255
e 255 314
e 255 315
e 255 256
e 256 314
e 256 313
e 256 257
e 257 258
e 257 313
e 258 312
e 258 313
e 258 311
e 258 259
e 259 260
e 259 311
e 260 311
e 260 309
e 260 261
e 261 309
e 261 262
e 262 309
e 262 308
e 262 263
e 263 306
e 263 307
e 263 308
e 263 264
e 264 305
e 264 306
e 264 265
e 265 305
e 265 266
e 266 304
e 266 305
e 266 267
e 267 304
e 267 268
e 268 269
e 268 304
e 269 304
e 269 301
e 269 270
e 270 300
e 270 301
e 270 271
e 271 300
e 271 272
e 272 298
e 272 299
e 272 273
e 272 300
e 273 297
e 273 298
e 273 274
e 274 296
e 274 297
e 274 275
e 275 295
e 275 296
e 275 276
e 276 294
e 276 295
e 276 277
e 277 293
e 277 294
e 277 278
e 278 293
e 278 292
e 279 285
e 279 284
e 280 281
e 280 340
e 281 340
e 281 341
e 282 283
e 282 438
e 283 434
e 283 343
e 283 342
e 283 438
e 284 339
e 284 286
e 284 285
e 285 286
e 285 287
e 286 344
e 286 339
e 286 346
e 286 287
e 287 288
e 287 346
e 288 346
e 288 348
e 288 289
e 289 290
e 289 351
e 289 348
e 290 351
e 290 353
e 290 291
e 291 292
e 291 356
e 291 353
e 292 356
e 292 358
e 292 338
e 292 293
e 293 294
e 293 338
e 294 338
e 294 337
e 294 295
e 295 337
e 295 336
e 295 296
e 296 336
e 296 335
e 296 297
e 297 335
e 297 334
e 297 298
e 298 334
e 298 333
e 298 299
e 299 333
e 299 332
e 299 331
e 299 300
e 300 331
e 300 302
e 300 301
e 301 303
e 301 302
e 301 304
e 302 303
e 302 329
e 302 331
e 303 328
e 303 329
e 303 327
e 303 304
e 304 327
e 304 326
e 304 305
e 305 326
e 305 306
e 306 307
e 306 325
e 306 326
e 307 325
e 307 324
e 307 308
e 308 324
e 308 323
e 308 309
e 309 321
e 309 310
e 309 322
e 309 323
e 309 311
e 310 321
e 310 311
e 311 321
e 311 320
e 311 319
e 311 312
e 312 319
e 312 314
e 312 313
e 313 314
e 314 319
e 314 317
e 314 315
e 315 317
e 315 316
e 316 318
e 316 401
e 316 317
e 317 318
e 317 319
e 318 401
e 318 320
e 318 319
e 319 320
e 320 401
e 320 322
e 320 321
e 321 322
e 322 323
e 322 401
e 323 401
e 323 387
e 323 324
e 324 387
e 324 325
e 325 387
e 325 326
e 326 366
e 326 386
e 326 327
e 326 387
e 327 366
e 327 328
e 328 330
e 328 366
e 328 329
e 329 330
e 329 331
e 330 366
e 330 331
e 331 365
e 331 366
e 331 332
e 332 364
e 332 365
e 332 333
e 333 363
e 333 364
e 333 334
e 334 362
e 334 363
e 334 335
e 335 361
e 335 362
e 335 336
e 336 360
e 336 361
e 336 337
e 337 359
e 337 360
e 337 338
e 338 359
e 338 369
e 338 358
e 339 344
e 339 375
e 339 374
e 339 373
e 339 340
e 340 341
e 340 372
e 340 373
e 341 372
e 341 342
e 342 343
e 342 370
e 342 372
e 343 382
e 343 370
e 343 402
e 343 434
e 344 345
e 344 375
e 344 346
e 345 376
e 345 375
e 345 347
e 345 346
e 346 347
e 346 348
e 347 376
e 347 349
e 347 348
e 348 349
e 348 351
e 349 350
e 349 376
e 349 351
e 350 352
e 350 376
e 350 351
e 351 352
e 351 353
e 352 376
e 352 354
e 352 353
e 353 354
e 353 356
e 354 355
e 354 376
e 354 356
e 355 376
e 355 378
e 355 357
e 355 356
e 356 357
e 356 358
e 357 378
e 357 388
e 357 369
e 357 358
e 358 369
e 359 360
e 359 369
e 360 368
e 360 369
e 360 361
e 361 368
e 361 362
e 362 368
e 362 363
e 363 364
e 363 368
e 364 368
e 364 367
e 364 365
e 365 367
e 365 366
e 366 367
e 366 377
e 366 386
e 367 377
e 367 368
e 368 377
e 368 369
e 369 377
e 369 384
e 369 388
e 370 382
e 370 371
e 370 372
e 371 381
e 371 382
e 371 372
e 371 380
e 371 374
e 371 373
e 372 373
e 373 374
e 374 380
e 374 379
e 374 375
e 375 376
e 375 379
e 376 379
e 376 378
e 377 386
e 377 384
e 378 389
e 378 388
e 378 379
e 379 389
e 379 390
e 379 380
e 380 381
e 380 390
e 381 382
e 381 383
e 381 393
e 381 390
e 382 383
e 382 402
e 383 394
e 383 393
e 383 402
e 384 386
e 384 385
e 384 414
e 384 388
e 385 387
e 385 400
e 385 386
e 385 399
e 385 414
e 386 387
e 387 400
e 387 401
e 388 389
e 388 413
e 388 418
e 388 414
e 389 413
e 389 405
e 389 398
e 389 390
e 390 398
e 390 391
e 390 392
e 390 393
e 391 397
e 391 398
e 391 392
e 392 396
e 392 397
e 392 394
e 392 393
e 393 394
e 394 396
e 394 402
e 395 412
e 395 406
e 395 397
e 395 396
e 395 398
e 395 402
e 396 397
e 396 402
e 397 398
e 398 406
e 398 405
e 399 416
e 399 415
e 399 404
e 399 414
e 399 403
e 399 401
e 399 400
e 400 401
e 401 403
e 402 410
e 402 407
e 402 412
e 402 433
e 402 434
e 403 404
e 404 416
e 405 431
e 405 432
e 405 421
e 405 406
e 405 420
e 405 413
e 406 421
e 406 422
e 406 411
e 406 412
e 407 410
e 407 408
e 407 433
e 408 409
e 408 425
e 408 410
e 408 433
e 409 425
e 409 424
e 409 411
e 409 410
e 409 412
e 410 412
e 411 424
e 411 422
e 411 412
e 413 419
e 413 420
e 413 418
e 414 415
e 414 430
e 414 418
e 415 430
e 415 428
e 415 427
e 415 417
e 415 416
e 416 417
e 417 427
e 418 419
e 418 431
e 418 430
e 419 431
e 419 420
e 420 431
e 421 429
e 421 426
e 421 423
e 421 432
e 421 422
e 422 423
e 422 424
e 423 429
e 423 426
e 423 425
e 423 424
e 424 425
e 425 429
e 425 432
e 425 431
e 425 433
e 426 429
e 427 428
e 428 430
e 429 432
e 430 431
e 431 432
e 431 433
e 433 436
e 433 437
e 433 435
e 433 434
e 434 435
e 434 438
e 435 436
e 435 438
e 436 437
e 436 438
e 437 438
